# Initialization
units           metal
dimension       3
boundary        p p p
atom_style      atomic

# System Properties
reset_timestep  0
timestep        0.005
variable        latparam equal 3.61
variable        boxLength equal 45
variable        temperature equal 300

# Create simulation box
lattice         fcc ${latparam}
region          simBox block 0 ${boxLength} 0 ${boxLength} 0 49.259
create_box      1 simBox
region          lowerSlab block 0 ${boxLength} 0 ${boxLength} 2 35.509
region          upperSlab block 0 ${boxLength} 0 ${boxLength} 36.509 47.259
create_atoms    1 region lowerSlab
create_atoms    1 region upperSlab
group           upperSlabs region upperSlab
group           lowerSlabs region lowerSlab

# Fixed Bottom Slab
region          fixed_bottom block 0 ${boxLength} 0 ${boxLength} 0 1
create_atoms    1 region fixed_bottom
group           fixedatoms region fixed_bottom

# Rigid Top Slab
region          rigid_layer block 0 45 0 45 48.259 49.259
create_atoms    1 region rigid_layer
group           rigidtop region rigid_layer

# Etching regions
region          pillar1 block 0 45 0 9.458 12.75 35.509
group           pillars1 region pillar1
region          pillar2 block 0 9.458 0 45 12.75 35.509
group           pillars2 region pillar2
region          pillar3 block 0 45 35.542 45 12.75 35.509
group           pillars3 region pillar3
region          pillar4 block 35.542 45 0 45 12.75 35.509
group           pillars4 region pillar4
delete_atoms    region pillar1
delete_atoms    region pillar2
delete_atoms    region pillar3
delete_atoms    region pillar4

group           allpillars union pillars1 pillars2 pillars3 pillars4

#Potential
pair_style meam
pair_coeff * * library.meam Cu Cu.meam Cu

#Settings

#EQUILIBRATION
reset_timestep 0
timestep 0.005
velocity all create 300 12345

group non_fixed_atoms subtract all fixedatoms
fix 1 non_fixed_atoms npt temp 500 600 0.5 iso 0 0 5 drag 1
fix 2 fixedatoms setforce 0.0 0.0 0.0
thermo 400
thermo_style custom step lx ly lz press pxx pyy pzz pe temp

# Use custom dump for Ovito output
dump 1 all custom 250 dump.Cu.equil.* id x y z fx fy fz
run 4000
unfix 1
undump 1

variable tmp equal "lz"
variable L0 equal ${tmp}
print "Initial Length, L0: ${L0}"

# DEFORMATION
reset_timestep 0

fix 1 non_fixed_atoms npt temp 500 600 0.5 iso 0 0 5 drag 1
fix 3 rigidtop move linear 0.0 0.0 -0.01 units box

#compute lowerSlab_atoms lowerSlab chunk/atom bin/1d z lower 0.0 units box
#compute upperSlab_atoms upperSlab chunk/atom bin/1d z lower 0.0 units box
#compute allpillars_atoms allpillars chunk/atom bin/1d z lower 0.0 units box

# Use custom dump for Ovito output
dump 2 all custom 250 dump.Cu.comp.* id xs ys zs fx fy fz

# Display thermo, run
thermo 400
thermo_style custom step lx ly lz press pxx pyy pzz pe temp

run 40000

# SIMULATION DONE
print "All done"
