# LAMMPS Simulation for Cu-Cu Diffusion
# Configuration: 1 Pillar

# Initialization
units           metal
dimension       3
boundary        p p p
atom_style      atomic

# System Properties
reset_timestep  0
timestep        0.005
variable        latparam equal 3.61
variable        boxLength equal 45
variable        temperature equal 300

# Create simulation box
lattice         fcc ${latparam}
region          simBox block 0 ${boxLength} 0 ${boxLength} 0 49.259
create_box      1 simBox
region          lowerSlab block 0 ${boxLength} 0 ${boxLength} 2 35.509
region          upperSlab block 0 ${boxLength} 0 ${boxLength} 36.509 47.259
create_atoms    1 region lowerSlab
create_atoms    1 region upperSlab
group           upperSlabs region upperSlab
group           lowerSlabs region lowerSlab

# Fixed Bottom Slab
region          fixed_bottom block 0 ${boxLength} 0 ${boxLength} 0 1
create_atoms    1 region fixed_bottom
group           fixedatoms region fixed_bottom

# Rigid Top Slab
region          rigid_layer block 0 45 0 45 48.259 49.259
create_atoms    1 region rigid_layer
group           rigidtop region rigid_layer

# Etching regions
region          pillar1 block 0 45  26.845 36.31  12.75 35.509
group           pillars1 region pillar1
region          pillar2 block 0 45  8.69 18.155  12.75 35.509
group           pillars2 region pillar2
region          pillar3 block 8.69 18.155  0 45  12.75 35.509
group           pillars3 region pillar3
region          pillar4 block 26.845 36.31  0 45  12.75 35.509
group           pillars4 region pillar4

delete_atoms    region pillar1
delete_atoms    region pillar2
delete_atoms    region pillar3
delete_atoms    region pillar4
group           allpillars union pillars1 pillars2 pillars3 pillars4 

# Potential
pair_style      meam
pair_coeff      * * library.meam Cu Cu.meam Cu

# Settings

# EQUILIBRATION
reset_timestep  0
timestep        0.005
velocity        all create ${temperature} 12345

group           non_fixed_atoms subtract all fixedatoms
fix             1 non_fixed_atoms nvt temp ${temperature} ${temperature} 0.1
fix             2 fixedatoms setforce 0.0 0.0 0.0
thermo          400
thermo_style    custom step lx ly lz press pxx pyy pzz pe temp

# Compute potential energy for equilibration
compute         thermo_pe_equil all pe/atom

# Use custom dump for equilibration output
dump            1 all custom 250 dump.Cu.equil.* id x y z fx fy fz c_thermo_pe_equil
dump_modify     1 every 1000

run             400
unfix           1
undump          1

variable        tmp equal "lz"
variable        L0 equal ${tmp}
print           "Initial Length, L0: ${L0}"

# DEFORMATION
reset_timestep  0

# Temperature ramp from 300K to 573K at 10^13 K/s
variable        temp_start equal 300
variable        temp_end equal 573
variable        heat_rate equal 1e13
variable        ramp_time equal (v_temp_end - v_temp_start) / v_heat_rate
fix             1 non_fixed_atoms npt temp ${temp_start} ${temp_end} 0.1 iso 0 0 5 drag 1 ramp v_temp_start v_temp_end v_heat_rate
fix             3 rigidtop move linear 0.0 0.0 -2 units box

# Compute potential energy for compression
compute         thermo_pe_comp all pe/atom

# Use custom dump for compression output
dump            2 all custom 250 dump.Cu.comp.* id xs ys zs fx fy fz c_thermo_pe_comp
dump_modify     2 every 1000

# Display thermo, run
thermo          400
thermo_style    custom step lx ly lz press pxx pyy pzz pe temp

run             ${ramp_time}

# SIMULATION DONE
print           "All done"
